words_hard_train/3954.qaiger
aag 72 15 0 1 57
2
4
8
10
16
18
22
28
36
54
64
70
82
94
120
144
6 3 4
12 9 11
14 6 12
20 16 18
24 20 22
26 14 24
30 27 28
32 25 3
34 33 4
38 35 37
40 34 36
42 39 41
44 13 22
46 44 16
48 47 19
50 13 24
52 49 51
56 52 55
58 50 2
60 51 3
62 59 61
66 63 65
68 57 67
72 70 23
74 73 45
76 13 23
78 77 70
80 8 10
84 81 82
86 79 85
88 75 87
90 45 17
92 91 47
96 93 94
98 89 97
100 92 95
102 99 101
104 53 54
106 103 105
108 68 107
110 62 64
112 109 111
114 61 5
116 60 4
118 115 117
122 119 121
124 113 123
126 118 120
128 125 127
130 42 129
132 30 131
134 26 29
136 130 134
138 133 137
140 43 128
142 140 135
144 138 143
i0 1 x1[5]
i1 1 x1[6]
i2 1 x1[0]
i3 1 x1[1]
i4 1 x1[3]
i5 1 x1[4]
i6 1 x1[2]
i7 2 y2[6]
i8 1 x1[7]
i9 2 y2[3]
i10 2 y2[4]
i11 2 y2[1]
i12 2 y2[0]
i13 2 y2[2]
i14 2 y2[5]
o0 bv[0]
c
simplified
  <=
    add
      1 x1
      subtract
        37
        1
    << 1
      2 y2
