words_hard_train/3954.qaiger.qdimacs
p cnf 72 172
a 1 2 4 5 8 9 11 18 0
e 3 6 7 10 12 13 14 15 16 17 19 20 21 22 23 24 25 26 27 28 29 30 31 32 33 34 35 36 37 38 39 40 41 42 43 44 45 46 47 48 49 50 51 52 53 54 55 56 57 58 59 60 61 62 63 64 65 66 67 68 69 70 71 72 0
1 -2 3 0
-1 -3 0
2 -3 0
4 5 6 0
-4 -6 0
-5 -6 0
-3 -6 7 0
3 -7 0
6 -7 0
-8 -9 10 0
8 -10 0
9 -10 0
-10 -11 12 0
10 -12 0
11 -12 0
-7 -12 13 0
7 -13 0
12 -13 0
13 -14 15 0
-13 -15 0
14 -15 0
12 1 16 0
-12 -16 0
-1 -16 0
16 -2 17 0
-16 -17 0
2 -17 0
17 18 19 0
-17 -19 0
-18 -19 0
-17 -18 20 0
17 -20 0
18 -20 0
19 20 21 0
-19 -21 0
-20 -21 0
6 -11 22 0
-6 -22 0
11 -22 0
-22 -8 23 0
22 -23 0
8 -23 0
23 9 24 0
-23 -24 0
-9 -24 0
6 -12 25 0
-6 -25 0
12 -25 0
24 25 26 0
-24 -26 0
-25 -26 0
-26 27 28 0
26 -28 0
-27 -28 0
-25 -1 29 0
25 -29 0
1 -29 0
25 1 30 0
-25 -30 0
-1 -30 0
29 30 31 0
-29 -31 0
-30 -31 0
31 32 33 0
-31 -33 0
-32 -33 0
28 33 34 0
-28 -34 0
-33 -34 0
-35 11 36 0
35 -36 0
-11 -36 0
36 22 37 0
-36 -37 0
-22 -37 0
6 11 38 0
-6 -38 0
-11 -38 0
38 -35 39 0
-38 -39 0
35 -39 0
-4 -5 40 0
4 -40 0
5 -40 0
40 -41 42 0
-40 -42 0
41 -42 0
39 42 43 0
-39 -43 0
-42 -43 0
37 43 44 0
-37 -44 0
-43 -44 0
22 8 45 0
-22 -45 0
-8 -45 0
45 23 46 0
-45 -46 0
-23 -46 0
46 -47 48 0
-46 -48 0
47 -48 0
44 48 49 0
-44 -49 0
-48 -49 0
-46 47 50 0
46 -50 0
-47 -50 0
49 50 51 0
-49 -51 0
-50 -51 0
26 -27 52 0
-26 -52 0
27 -52 0
51 52 53 0
-51 -53 0
-52 -53 0
-34 53 54 0
34 -54 0
-53 -54 0
-31 -32 55 0
31 -55 0
32 -55 0
54 55 56 0
-54 -56 0
-55 -56 0
30 2 57 0
-30 -57 0
-2 -57 0
-30 -2 58 0
30 -58 0
2 -58 0
57 58 59 0
-57 -59 0
-58 -59 0
59 60 61 0
-59 -61 0
-60 -61 0
56 61 62 0
-56 -62 0
-61 -62 0
-59 -60 63 0
59 -63 0
60 -63 0
62 63 64 0
-62 -64 0
-63 -64 0
-21 64 65 0
21 -65 0
-64 -65 0
-15 65 66 0
15 -66 0
-65 -66 0
-13 14 67 0
13 -67 0
-14 -67 0
-65 -67 68 0
65 -68 0
67 -68 0
66 68 69 0
-66 -69 0
-68 -69 0
21 -64 70 0
-21 -70 0
64 -70 0
-70 67 71 0
70 -71 0
-67 -71 0
-69 71 72 0
69 -72 0
-71 -72 0
72 0
